benchmarks/VRPTW/TSPTW/solution/n60w100.004.txt.solution
1 11 8 19 25 48 32 50 17 31 12 20 28 43 29 37 47 26 44 27 39 5 58 9 60 57 21 49 46 54 10 41 35 55 33 45 34 3 14 16 22 38 4 52 30 56 7 15 42 13 59 2 53 36 23 51 6 24 61 40 18 
510
